NAME : adam4
COMMENT : (Eilon et al, Min no of trucks: 4, Best value: 585)
TYPE : CVRP
DIMENSION : 4
EDGE_WEIGHT_TYPE : EUC_2D
CAPACITY : 6000
NODE_COORD_SECTION
1 2 3
2 7 2
3 10 4
4 5 1
DEMAND_SECTION
1 0
2 1100
3 700
4 800
DEPOT_SECTION
 1
 -1
EOF
